Problem:    
Rows:       195
Columns:    69 (54 integer, 54 binary)
Non-zeros:  710
Status:     INTEGER OPTIMAL
Objective:  value = 11.733591 (MINimum)

   No.   Row name        Activity     Lower bound   Upper bound
------ ------------    ------------- ------------- -------------
     1 r.5                   11.7336             0               
     2 r.6                   11.7336      -996.765               
     3 r.7                   1011.73             0               
     4 r.8                  -988.266      -990.209               
     5 r.9                   1011.73             0               
     6 r.10                 -990.481      -997.418               
     7 r.11                  11.7336             0               
     8 r.12                  9.51926      -991.143               
     9 r.13                  1011.73             0               
    10 r.14                 -993.063      -997.902               
    11 r.15                  11.7336             0               
    12 r.16                  9.51926      -989.394               
    13 r.17                  1011.73             0               
    14 r.18                 -995.161       -998.93               
    15 r.19                  11.7336             0               
    16 r.20                  4.83887      -993.544               
    17 r.21                  1011.73             0               
    18 r.22                 -996.231      -997.507               
    19 r.23                  11.7336             0               
    20 r.24                  9.51926      -992.096               
    21 r.25                  1011.73             0               
    22 r.26                  -999.01       -999.01               
    23 r.27                  11.7336             0               
    24 r.28                  1.57395      -993.888               
    25 r.29                  1011.73             0               
    26 r.30                 -988.266      -997.786               
    27 r.31                  11.7336             0               
    28 r.32                  11.7336      -995.454               
    29 r.33                        1             1             = 
    30 r.34                        1             1             = 
    31 r.35                        1             1             = 
    32 r.36                        1             1             = 
    33 r.37                        1             1             = 
    34 r.38                        1             1             = 
    35 r.39                        1             1             = 
    36 r.40                     1001             2               
    37 r.41                    -1001         -1001               
    38 r.42                  1997.79      -997.418               
    39 r.43                     1001             2               
    40 r.44                    -1001         -1001               
    41 r.45                  1997.79      -991.143               
    42 r.46                     1001             2               
    43 r.47                    -1001         -1001               
    44 r.48                   1995.2      -997.902               
    45 r.49                     1001             2               
    46 r.50                    -1001         -1001               
    47 r.51                  1997.79      -989.394               
    48 r.52                     1001             2               
    49 r.53                    -1001         -1001               
    50 r.54                  1993.11       -998.93               
    51 r.55                     1001             2               
    52 r.56                    -1001         -1001               
    53 r.57                  1993.11      -993.544               
    54 r.58                     1001             2               
    55 r.59                    -1001         -1001               
    56 r.60                  1992.04      -997.507               
    57 r.61                     1001             2               
    58 r.62                    -1001         -1001               
    59 r.63                  1997.79      -992.096               
    60 r.64                  10.4572      -996.765               
    61 r.65                 -989.543      -990.209               
    62 r.66                  10.4572      -996.765               
    63 r.67                 -989.543      -990.209               
    64 r.68                     1001             2               
    65 r.69                    -1001         -1001               
    66 r.70                     2000      -997.786               
    67 r.71                     1001             2               
    68 r.72                    -1001         -1001               
    69 r.73                     2000      -995.454               
    70 r.74                     1001             2               
    71 r.75                    -1001         -1001               
    72 r.76                  2002.21       3.23524               
    73 r.77                     1001             2               
    74 r.78                    -1001         -1001               
    75 r.79                  2002.21       9.79132               
    76 r.80                        2             2               
    77 r.81                       -2         -1001               
    78 r.82                 -2.58232      -997.902               
    79 r.83                     1000             2               
    80 r.84                    -1000         -1001               
    81 r.85                     2000      -989.394               
    82 r.86                        2             2               
    83 r.87                       -2         -1001               
    84 r.88                 -4.68039       -998.93               
    85 r.89                     1000             2               
    86 r.90                    -1000         -1001               
    87 r.91                  1995.32      -993.544               
    88 r.92                        2             2               
    89 r.93                       -2         -1001               
    90 r.94                 -5.75029      -997.507               
    91 r.95                     1000             2               
    92 r.96                    -1000         -1001               
    93 r.97                     2000      -992.096               
    94 r.98                 -991.757      -997.418               
    95 r.99                  8.24291      -991.143               
    96 r.100                -991.757      -997.418               
    97 r.101                 8.24291      -991.143               
    98 r.102                -997.786      -997.786               
    99 r.103                 2.21433      -995.454               
   100 r.104                -997.786      -997.786               
   101 r.105                 2.21433      -995.454               
   102 r.106                    1001             2               
   103 r.107                   -1001         -1001               
   104 r.108                  2004.8       3.23524               
   105 r.109                    1001             2               
   106 r.110                   -1001         -1001               
   107 r.111                 2002.21       9.79132               
   108 r.112                       2             2               
   109 r.113                      -2         -1001               
   110 r.114                 2.58232       2.58232               
   111 r.115                    1000             2               
   112 r.116                   -1000         -1001               
   113 r.117                    2000       8.85657               
   114 r.118                -997.902      -997.902               
   115 r.119                 4.68039      -989.394               
   116 r.120                -997.902      -997.902               
   117 r.121                 4.68039      -989.394               
   118 r.122                       2             2               
   119 r.123                      -2         -1001               
   120 r.124                -3.16797      -997.507               
   121 r.125                    1000             2               
   122 r.126                   -1000         -1001               
   123 r.127                    2000      -992.096               
   124 r.128                -994.339      -997.902               
   125 r.129                 8.24291      -989.394               
   126 r.130                -994.339      -997.902               
   127 r.131                 8.24291      -989.394               
   128 r.132                -995.203      -997.786               
   129 r.133                 4.79665      -995.454               
   130 r.134                -997.786      -997.786               
   131 r.135                 2.21433      -995.454               
   132 r.136                    1001             2               
   133 r.137                   -1001         -1001               
   134 r.138                 2006.89       3.23524               
   135 r.139                    1001             2               
   136 r.140                   -1001         -1001               
   137 r.141                 2006.89       9.79132               
   138 r.142                       2             2               
   139 r.143                      -2         -1001               
   140 r.144                 4.68039       2.58232               
   141 r.145                    1000             2               
   142 r.146                   -1000         -1001               
   143 r.147                 2004.68       8.85657               
   144 r.148                       2             2               
   145 r.149                      -2         -1001               
   146 r.150                 -1.0699      -997.507               
   147 r.151                    1000             2               
   148 r.152                   -1000         -1001               
   149 r.153                 2004.68      -992.096               
   150 r.154                -996.437       -998.93               
   151 r.155                 3.56252      -993.544               
   152 r.156                -996.437       -998.93               
   153 r.157                 3.56252      -993.544               
   154 r.158                -993.105      -997.786               
   155 r.159                 6.89472      -995.454               
   156 r.160                -993.105      -997.786               
   157 r.161                 6.89472      -995.454               
   158 r.162                    1001             2               
   159 r.163                   -1001         -1001               
   160 r.164                 2007.96       3.23524               
   161 r.165                    1001             2               
   162 r.166                   -1001         -1001               
   163 r.167                 2002.21       9.79132               
   164 r.168                       2             2               
   165 r.169                      -2         -1001               
   166 r.170                 5.75029       2.58232               
   167 r.171                    1000             2               
   168 r.172                   -1000         -1001               
   169 r.173                    2000       8.85657               
   170 r.174                       2             2               
   171 r.175                      -2         -1001               
   172 r.176                 3.16797       2.09807               
   173 r.177                    1000             2               
   174 r.178                   -1000         -1001               
   175 r.179                    2000       10.6063               
   176 r.180                       2             2               
   177 r.181                      -2         -1001               
   178 r.182                  1.0699        1.0699               
   179 r.183                    1000             2               
   180 r.184                   -1000         -1001               
   181 r.185                 1995.32       6.45565               
   182 r.186                -997.507      -997.507               
   183 r.187                 8.24291      -992.096               
   184 r.188                -997.507      -997.507               
   185 r.189                 8.24291      -992.096               
   186 r.190                -992.035      -997.786               
   187 r.191                 7.96462      -995.454               
   188 r.192                -997.786      -997.786               
   189 r.193                 2.21433      -995.454               
   190 r.194                    1001             2               
   191 r.195                   -1001         -1001               
   192 r.196                    2000       3.23524               
   193 r.197                    1001             2               
   194 r.198                   -1001         -1001               
   195 r.199                    2000       9.79132               

   No. Column name       Activity     Lower bound   Upper bound
------ ------------    ------------- ------------- -------------
     1 tt                    11.7336             0               
     2 s_1_1        *              0             0             1 
     3 t_1_1                       0             0               
     4 s_2_1        *              1             0             1 
     5 t_2_1                       0             0               
     6 s_1_2        *              1             0             1 
     7 t_1_2                 2.21433             0               
     8 s_1_7        *              1             0             1 
     9 s_2_2        *              0             0             1 
    10 t_2_2                 2.21433             0               
    11 s_2_7        *              0             0             1 
    12 s_1_3        *              1             0             1 
    13 t_1_3                 4.79665             0               
    14 s_2_3        *              0             0             1 
    15 t_2_3                 2.21433             0               
    16 s_1_4        *              1             0             1 
    17 t_1_4                 6.89472             0               
    18 s_2_4        *              0             0             1 
    19 t_2_4                 6.89472             0               
    20 s_1_5        *              1             0             1 
    21 t_1_5                 7.96462             0               
    22 s_2_5        *              0             0             1 
    23 t_2_5                 2.21433             0               
    24 s_1_6        *              1             0             1 
    25 t_1_6                 10.4572             0               
    26 s_2_6        *              0             0             1 
    27 t_2_6                 10.4572             0               
    28 t_1_7                       0             0               
    29 t_2_7                       0             0               
    30 r_1_1_2      *              1             0             1 
    31 u_1_1_2      *              0             0             1 
    32 r_2_1_2      *              1             0             1 
    33 u_2_1_2      *              0             0             1 
    34 r_1_1_3      *              1             0             1 
    35 u_1_1_3      *              0             0             1 
    36 r_2_1_3      *              1             0             1 
    37 u_2_1_3      *              0             0             1 
    38 r_1_1_4      *              1             0             1 
    39 u_1_1_4      *              0             0             1 
    40 r_2_1_4      *              1             0             1 
    41 u_2_1_4      *              0             0             1 
    42 r_1_1_5      *              1             0             1 
    43 u_1_1_5      *              0             0             1 
    44 r_2_1_5      *              1             0             1 
    45 u_2_1_5      *              0             0             1 
    46 r_1_1_7      *              1             0             1 
    47 u_1_1_7      *              0             0             1 
    48 r_2_1_7      *              1             0             1 
    49 u_2_1_7      *              0             0             1 
    50 r_1_2_3      *              0             0             1 
    51 u_1_2_3      *              0             0             1 
    52 r_2_2_3      *              1             0             1 
    53 u_2_2_3      *              0             0             1 
    54 r_1_2_4      *              0             0             1 
    55 u_1_2_4      *              0             0             1 
    56 r_2_2_4      *              1             0             1 
    57 u_2_2_4      *              0             0             1 
    58 r_1_2_5      *              0             0             1 
    59 u_1_2_5      *              0             0             1 
    60 r_2_2_5      *              1             0             1 
    61 u_2_2_5      *              0             0             1 
    62 r_1_3_5      *              0             0             1 
    63 u_1_3_5      *              0             0             1 
    64 r_2_3_5      *              1             0             1 
    65 u_2_3_5      *              0             0             1 
    66 r_1_4_5      *              0             0             1 
    67 u_1_4_5      *              0             0             1 
    68 r_2_4_5      *              1             0             1 
    69 u_2_4_5      *              0             0             1 

Integer feasibility conditions:

KKT.PE: max.abs.err = 2.27e-13 on row 38
        max.rel.err = 5.68e-17 on row 44
        High quality

KKT.PB: max.abs.err = 3.86e-14 on row 178
        max.rel.err = 1.87e-14 on row 178
        High quality

End of output
